NAME : eil22.375.tour
COMMENT : Length = 375
COMMENT : Found by LKH-3 [Keld Helsgaun] Tue May  6 22:18:14 2025
TYPE : TOUR
DIMENSION : 25
TOUR_SECTION
5
12
14
25
7
2
3
6
8
10
24
13
16
19
21
18
1
15
22
20
17
23
11
9
4
-1
EOF
